unsat
(define-fun f ((x0 (BitVec 64)) (x1 (BitVec 64))) (BitVec 64) (bvmul x0 x1))
(define-fun f ((x0 (BitVec 64)) (x1 (BitVec 64))) (BitVec 64) (bvmul x0 x1))
int-arith12.sl running time : 0 m .021617802 s
times : .021617802
